(set-logic HORN)
(set-info :source |
    Benchmark: C_VC
    Output by Princess (http://www.philipp.ruemmer.org/princess.shtml)
|)
(set-info :status unsat)
;===============================================================================
; Encoding of Heap sorts and operations
;-------------------------------------------------------------------------------
(define-sort Addr() Int)
(declare-datatypes ((AddrRange 0))
                   (((AddrRange (AddrRangeStart Addr) (AddrRangeSize Int)))))

(declare-datatypes ((HeapObject 0) (node 0) (TreeNode 0))
                   (((O_Int (getInt Int)) (O_UInt (getUInt Int)) (O_Addr (getAddr Addr)) (O_AddrRange (getAddrRange AddrRange)) (O_node (getnode node)) (O_TreeNode (getTreeNode TreeNode)) (defObj))
                   ((node (|node::h| Int) (|node::n| Addr)))
                   ((TreeNode (|TreeNode::left| Addr) (|TreeNode::right| Addr)))))
(declare-datatypes ((BatchAllocResHeap 0) (AllocResHeap 0) (Heap 0))
                   (((BatchAllocResHeap   (newBatchHeap Heap) (newAddrRange AddrRange)))
                   ((AllocResHeap   (newHeap Heap) (newAddr Addr)))
                    ((HeapCtor (HeapSize Int)
                               (HeapContents (Array Addr HeapObject))))))
(define-fun nullAddr  () Addr 0)
(define-fun valid     ((h Heap) (p Addr)) Bool
  (and (>= (HeapSize h) p) (> p 0)))
(define-fun emptyHeap () Heap (
  HeapCtor 0 (( as const (Array Addr HeapObject)) defObj)))
(define-fun read ((h Heap) (p Addr)) HeapObject
  (ite (valid h p)
       (select (HeapContents h) p)
       defObj))
(define-fun write ((h Heap) (p Addr) (o HeapObject)) Heap
  (ite (valid h p)
       (HeapCtor (HeapSize h) (store (HeapContents h) p o))
       h))
(define-fun alloc   ((h Heap) (o HeapObject)) AllocResHeap
  (AllocResHeap (HeapCtor (+ 1 (HeapSize h))
                    (store (HeapContents h) (+ 1 (HeapSize h)) o))
          (+ 1 (HeapSize h))))

;===============================================================================
(declare-fun inv_main552_3 (Heap) Bool)
(declare-fun inv_main575_3 (Heap Addr Addr Addr) Bool)
(declare-fun inv_main596_15 (Heap Addr Addr Addr Addr Int) Bool)
(declare-fun inv_main598_3 (Heap Addr Addr Addr Addr Addr Addr) Bool)
(declare-fun inv_main602_17 (Heap Addr Addr Addr Addr Addr Addr Int) Bool)
(declare-fun inv_main609_17 (Heap Addr Addr Addr Addr Addr Addr Int) Bool)
(declare-fun inv_main619_6_63 (Heap Addr Addr Addr Addr Addr Addr) Bool)
(declare-fun inv_main_12 (Heap Addr Addr) Bool)
(declare-fun inv_main_2 (Heap Addr Addr) Bool)
(declare-fun inv_main_27 (Heap Addr Addr Addr) Bool)
(declare-fun inv_main_38 (Heap Addr Addr Addr Addr Addr Addr) Bool)
(declare-fun inv_main_5 (Heap Addr Addr) Bool)
(declare-fun inv_main_57 (Heap Addr Addr Addr Addr Addr Addr) Bool)
(declare-fun inv_main_58 (Heap Addr Addr Addr Addr Addr Addr) Bool)
(assert (forall ((var0 Heap)) (or (not (= var0 emptyHeap)) (inv_main552_3 var0))))
(assert (forall ((var0 Addr) (var1 Addr) (var2 Addr) (var3 Heap) (var4 Addr) (var5 Addr) (var6 Addr) (var7 Heap)) (or (not (and (inv_main575_3 var7 var6 var5 var4) (and (not (= var6 nullAddr)) (and (and (and (= var3 var7) (= var2 var6)) (= var1 var5)) (= var0 nullAddr))))) (inv_main_27 var3 var2 var2 var0))))
(assert (forall ((var0 Addr) (var1 Addr) (var2 Addr) (var3 Addr) (var4 Addr) (var5 Addr) (var6 Addr) (var7 Addr) (var8 Heap) (var9 Heap) (var10 Addr) (var11 Addr) (var12 Addr) (var13 Heap)) (or (not (and (inv_main_27 var13 var12 var11 var10) (and (and (and (and (and (= var9 var8) (= var7 var6)) (= var5 var4)) (= var3 var4)) (= var2 (|TreeNode::left| (getTreeNode (read var8 var4))))) (and (not (= (|TreeNode::left| (getTreeNode (read var8 var4))) nullAddr)) (and (not (= var1 nullAddr)) (and (and (and (and (= var8 var13) (= var6 var12)) (= var4 var11)) (= var0 var10)) (= var1 (|TreeNode::left| (getTreeNode (read var13 var11)))))))))) (inv_main_27 var9 var7 var2 var3))))
(assert (forall ((var0 Addr) (var1 Addr) (var2 Addr) (var3 Addr) (var4 Heap) (var5 Addr) (var6 Addr) (var7 Addr) (var8 Addr) (var9 Addr) (var10 Addr) (var11 Addr) (var12 Addr) (var13 Heap) (var14 Heap) (var15 Addr) (var16 Addr) (var17 Addr) (var18 Heap)) (or (not (and (inv_main_27 var18 var17 var16 var15) (and (and (and (and (and (= var14 var13) (= var12 var11)) (= var10 var9)) (= var8 var9)) (= var7 (|TreeNode::left| (getTreeNode (read var13 var9))))) (and (not (= (|TreeNode::left| (getTreeNode (read var13 var9))) nullAddr)) (and (not (= var6 0)) (and (and (= var5 nullAddr) (and (and (and (and (= var4 var18) (= var3 var17)) (= var2 var16)) (= var1 var15)) (= var5 (|TreeNode::left| (getTreeNode (read var18 var16)))))) (and (and (and (and (= var13 var4) (= var11 var3)) (= var9 var2)) (= var0 var1)) (= var6 (|TreeNode::right| (getTreeNode (read var4 var2))))))))))) (inv_main_27 var14 var12 var7 var8))))
(assert (forall ((var0 Addr) (var1 Addr) (var2 Addr) (var3 Addr) (var4 Addr) (var5 Addr) (var6 Addr) (var7 Addr) (var8 Heap) (var9 Heap) (var10 Addr) (var11 Addr) (var12 Addr) (var13 Heap)) (or (not (and (inv_main_27 var13 var12 var11 var10) (and (and (and (and (and (= var9 var8) (= var7 var6)) (= var5 var4)) (= var3 var4)) (= var2 (|TreeNode::right| (getTreeNode (read var8 var4))))) (and (= (|TreeNode::left| (getTreeNode (read var8 var4))) nullAddr) (and (not (= var1 nullAddr)) (and (and (and (and (= var8 var13) (= var6 var12)) (= var4 var11)) (= var0 var10)) (= var1 (|TreeNode::left| (getTreeNode (read var13 var11)))))))))) (inv_main_27 var9 var7 var2 var3))))
(assert (forall ((var0 Addr) (var1 Addr) (var2 Addr) (var3 Addr) (var4 Heap) (var5 Addr) (var6 Addr) (var7 Addr) (var8 Addr) (var9 Addr) (var10 Addr) (var11 Addr) (var12 Addr) (var13 Heap) (var14 Heap) (var15 Addr) (var16 Addr) (var17 Addr) (var18 Heap)) (or (not (and (inv_main_27 var18 var17 var16 var15) (and (and (and (and (and (= var14 var13) (= var12 var11)) (= var10 var9)) (= var8 var9)) (= var7 (|TreeNode::right| (getTreeNode (read var13 var9))))) (and (= (|TreeNode::left| (getTreeNode (read var13 var9))) nullAddr) (and (not (= var6 0)) (and (and (= var5 nullAddr) (and (and (and (and (= var4 var18) (= var3 var17)) (= var2 var16)) (= var1 var15)) (= var5 (|TreeNode::left| (getTreeNode (read var18 var16)))))) (and (and (and (and (= var13 var4) (= var11 var3)) (= var9 var2)) (= var0 var1)) (= var6 (|TreeNode::right| (getTreeNode (read var4 var2))))))))))) (inv_main_27 var14 var12 var7 var8))))
(assert (forall ((var0 Int) (var1 Addr) (var2 Addr) (var3 Addr) (var4 Addr) (var5 Addr) (var6 Addr) (var7 Addr) (var8 node) (var9 Heap) (var10 Addr) (var11 Addr) (var12 Addr) (var13 Addr) (var14 Addr) (var15 Addr) (var16 Heap) (var17 Addr) (var18 Addr) (var19 Addr) (var20 Addr) (var21 Addr) (var22 Addr) (var23 Addr) (var24 Addr) (var25 Addr) (var26 Addr) (var27 Addr) (var28 Addr) (var29 Addr) (var30 Heap) (var31 Heap) (var32 Addr) (var33 Addr) (var34 Addr) (var35 Addr) (var36 Addr) (var37 Addr) (var38 Heap)) (or (not (and (inv_main598_3 var38 var37 var36 var35 var34 var33 var32) (and (and (and (and (and (and (and (and (and (= var31 var30) (= var29 var28)) (= var27 var26)) (= var25 var24)) (= var23 var22)) (= var21 var20)) (= var19 var18)) (= var17 (|node::n| (getnode (read var30 var18))))) (and (and (and (and (and (and (= var30 (write var16 var15 (O_node (node (|node::h| (getnode (read var16 var15))) var14)))) (= var28 var13)) (= var26 var12)) (= var24 var11)) (= var22 var10)) (= var20 var14)) (= var18 var15))) (and (not (= var14 nullAddr)) (and (and (and (and (and (and (and (and (and (= var16 (newHeap (alloc var9 (O_node var8)))) (= var13 var7)) (= var12 var6)) (= var11 var5)) (= var10 var4)) (= var3 var2)) (= var15 var1)) (= var14 (newAddr (alloc var9 (O_node var8))))) (not (= var0 0))) (and (and (and (and (and (and (= var9 (write var38 var32 (O_node (node 1 (|node::n| (getnode (read var38 var32))))))) (= var7 var37)) (= var6 var36)) (= var5 var35)) (= var4 var34)) (= var2 var33)) (= var1 var32))))))) (inv_main598_3 var31 var29 var27 var25 var23 var21 var17))))
(assert (forall ((var0 Addr) (var1 Addr) (var2 Addr) (var3 Addr) (var4 node) (var5 Heap) (var6 Addr) (var7 Addr) (var8 Addr) (var9 Addr) (var10 Heap)) (or (not (and (inv_main575_3 var10 var9 var8 var7) (and (and (not (= var6 nullAddr)) (and (and (and (and (= var5 (newHeap (alloc var10 (O_node var4)))) (= var3 var9)) (= var2 var8)) (= var1 var7)) (= var6 (newAddr (alloc var10 (O_node var4)))))) (= var9 nullAddr)))) (inv_main598_3 var5 var3 var2 var1 var6 var0 var6))))
(assert (forall ((var0 Heap) (var1 Addr) (var2 Addr) (var3 Heap) (var4 Addr) (var5 Addr) (var6 Addr) (var7 TreeNode) (var8 Heap) (var9 Heap)) (or (not (and (inv_main552_3 var9) (and (and (and (and (= var8 (newHeap (alloc var9 (O_TreeNode var7)))) (= var6 (newAddr (alloc var9 (O_TreeNode var7))))) (= var5 var4)) (and (and (= var3 (write var8 var6 (O_TreeNode (TreeNode nullAddr (|TreeNode::right| (getTreeNode (read var8 var6))))))) (= var2 var6)) (= var1 var5))) (= var0 (write var3 var2 (O_TreeNode (TreeNode (|TreeNode::left| (getTreeNode (read var3 var2))) nullAddr))))))) (inv_main_2 var0 var2 var1))))
(assert (forall ((var0 Addr) (var1 Addr) (var2 Heap) (var3 Int) (var4 Addr) (var5 Addr) (var6 Heap)) (or (not (and (inv_main_12 var6 var5 var4) (and (= var3 0) (and (and (and (= var2 var6) (= var1 var5)) (= var0 var4)) (or (and (= (|TreeNode::right| (getTreeNode (read var6 var4))) nullAddr) (= var3 1)) (and (not (= (|TreeNode::right| (getTreeNode (read var6 var4))) nullAddr)) (= var3 0))))))) (inv_main_2 var2 var1 var0))))
(assert (forall ((var0 Addr) (var1 Addr) (var2 Heap) (var3 Int) (var4 Int) (var5 Addr) (var6 Addr) (var7 Heap)) (or (not (and (inv_main_12 var7 var6 var5) (and (= var4 0) (and (not (= var3 0)) (and (and (and (= var2 var7) (= var1 var6)) (= var0 var5)) (or (and (= (|TreeNode::right| (getTreeNode (read var7 var5))) nullAddr) (= var3 1)) (and (not (= (|TreeNode::right| (getTreeNode (read var7 var5))) nullAddr)) (= var3 0)))))))) (inv_main_2 var2 var1 var0))))
(assert (forall ((var0 Heap) (var1 Addr) (var2 Addr) (var3 Heap) (var4 Addr) (var5 Addr) (var6 Heap) (var7 Int) (var8 Int) (var9 Addr) (var10 Addr) (var11 Addr) (var12 Addr) (var13 Addr) (var14 TreeNode) (var15 Heap) (var16 Heap) (var17 Addr) (var18 Addr) (var19 Heap)) (or (not (and (inv_main_12 var19 var18 var17) (and (and (and (and (and (and (and (= var16 (newHeap (alloc var15 (O_TreeNode var14)))) (= var13 var12)) (= var11 var10)) (= var9 (newAddr (alloc var15 (O_TreeNode var14))))) (and (not (= var8 0)) (and (not (= var7 0)) (and (and (and (= var15 var19) (= var12 var18)) (= var10 var17)) (or (and (= (|TreeNode::right| (getTreeNode (read var19 var17))) nullAddr) (= var7 1)) (and (not (= (|TreeNode::right| (getTreeNode (read var19 var17))) nullAddr)) (= var7 0))))))) (and (and (= var6 (write var16 var11 (O_TreeNode (TreeNode (|TreeNode::left| (getTreeNode (read var16 var11))) var9)))) (= var5 var13)) (= var4 var11))) (and (and (= var3 (write var6 (|TreeNode::right| (getTreeNode (read var6 var4))) (O_TreeNode (TreeNode nullAddr (|TreeNode::right| (getTreeNode (read var6 (|TreeNode::right| (getTreeNode (read var6 var4)))))))))) (= var2 var5)) (= var1 var4))) (= var0 (write var3 (|TreeNode::right| (getTreeNode (read var3 var1))) (O_TreeNode (TreeNode (|TreeNode::left| (getTreeNode (read var3 (|TreeNode::right| (getTreeNode (read var3 var1)))))) nullAddr))))))) (inv_main_2 var0 var2 var1))))
(assert (forall ((var0 Int) (var1 Addr) (var2 Addr) (var3 Addr) (var4 Addr) (var5 Addr) (var6 Addr) (var7 Addr) (var8 Addr) (var9 Addr) (var10 Addr) (var11 Addr) (var12 Addr) (var13 Heap) (var14 Heap) (var15 Int) (var16 Addr) (var17 Addr) (var18 Addr) (var19 Addr) (var20 Addr) (var21 Addr) (var22 Heap)) (or (not (and (inv_main_58 var22 var21 var20 var19 var18 var17 var16) (and (and (not (= var15 3)) (and (and (and (and (and (and (and (= var14 var13) (= var12 var11)) (= var10 var9)) (= var8 var7)) (= var6 var5)) (= var4 var3)) (= var2 var1)) (= var15 (|node::h| (getnode (read var13 var1)))))) (and (not (= var0 1)) (and (and (and (and (and (and (and (= var13 var22) (= var11 var21)) (= var9 var20)) (= var7 var19)) (= var5 var18)) (= var3 var17)) (= var1 var16)) (= var0 (|node::h| (getnode (read var22 var16))))))))) (inv_main619_6_63 var14 var12 var10 var8 var6 var4 var2))))
(assert (forall ((var0 Int) (var1 Addr) (var2 Addr) (var3 Addr) (var4 Addr) (var5 Heap)) (or (not (inv_main596_15 var5 var4 var3 var2 var1 var0)) (inv_main596_15 var5 var4 var3 var2 var1 var0))))
(assert (forall ((var0 Int) (var1 Addr) (var2 Addr) (var3 Addr) (var4 node) (var5 Heap) (var6 Addr) (var7 Addr) (var8 Addr) (var9 Addr) (var10 Heap)) (or (not (and (inv_main575_3 var10 var9 var8 var7) (and (and (and (= var6 nullAddr) (and (and (and (and (= var5 (newHeap (alloc var10 (O_node var4)))) (= var3 var9)) (= var2 var8)) (= var1 var7)) (= var6 (newAddr (alloc var10 (O_node var4)))))) (= var9 nullAddr)) (= var0 1)))) (inv_main596_15 var5 var3 var2 var1 var6 var0))))
(assert (forall ((var0 Addr) (var1 Addr) (var2 Addr) (var3 Addr) (var4 Addr) (var5 Heap) (var6 Heap) (var7 Int) (var8 Addr) (var9 Addr) (var10 Heap)) (or (not (and (inv_main_5 var10 var9 var8) (and (and (= var7 0) (and (and (and (= var6 var5) (= var4 var3)) (= var2 var1)) (or (and (= (|TreeNode::left| (getTreeNode (read var5 var1))) nullAddr) (= var7 1)) (and (not (= (|TreeNode::left| (getTreeNode (read var5 var1))) nullAddr)) (= var7 0))))) (and (= var0 nullAddr) (and (and (and (= var5 var10) (= var3 var9)) (= var1 var8)) (= var0 (|TreeNode::left| (getTreeNode (read var10 var8))))))))) (inv_main_12 var6 var4 var2))))
(assert (forall ((var0 Addr) (var1 Addr) (var2 Heap) (var3 Addr) (var4 Addr) (var5 Addr) (var6 Addr) (var7 Addr) (var8 Addr) (var9 Heap) (var10 Heap) (var11 Int) (var12 Addr) (var13 Addr) (var14 Heap)) (or (not (and (inv_main_5 var14 var13 var12) (and (and (= var11 0) (and (and (and (= var10 var9) (= var8 var7)) (= var6 var5)) (or (and (= (|TreeNode::left| (getTreeNode (read var9 var5))) nullAddr) (= var11 1)) (and (not (= (|TreeNode::left| (getTreeNode (read var9 var5))) nullAddr)) (= var11 0))))) (and (= var4 0) (and (and (not (= var3 nullAddr)) (and (and (and (= var2 var14) (= var1 var13)) (= var0 var12)) (= var3 (|TreeNode::left| (getTreeNode (read var14 var12)))))) (and (and (and (= var9 var2) (= var7 var1)) (= var5 var0)) (= var4 (|TreeNode::right| (getTreeNode (read var2 var0)))))))))) (inv_main_12 var10 var8 var6))))
(assert (forall ((var0 Addr) (var1 Addr) (var2 Addr) (var3 Addr) (var4 Addr) (var5 Heap) (var6 Heap) (var7 Int) (var8 Int) (var9 Addr) (var10 Addr) (var11 Heap)) (or (not (and (inv_main_5 var11 var10 var9) (and (= var8 0) (and (and (not (= var7 0)) (and (and (and (= var6 var5) (= var4 var3)) (= var2 var1)) (or (and (= (|TreeNode::left| (getTreeNode (read var5 var1))) nullAddr) (= var7 1)) (and (not (= (|TreeNode::left| (getTreeNode (read var5 var1))) nullAddr)) (= var7 0))))) (and (= var0 nullAddr) (and (and (and (= var5 var11) (= var3 var10)) (= var1 var9)) (= var0 (|TreeNode::left| (getTreeNode (read var11 var9)))))))))) (inv_main_12 var6 var4 var2))))
(assert (forall ((var0 Addr) (var1 Addr) (var2 Heap) (var3 Addr) (var4 Addr) (var5 Addr) (var6 Addr) (var7 Addr) (var8 Addr) (var9 Heap) (var10 Heap) (var11 Int) (var12 Int) (var13 Addr) (var14 Addr) (var15 Heap)) (or (not (and (inv_main_5 var15 var14 var13) (and (= var12 0) (and (and (not (= var11 0)) (and (and (and (= var10 var9) (= var8 var7)) (= var6 var5)) (or (and (= (|TreeNode::left| (getTreeNode (read var9 var5))) nullAddr) (= var11 1)) (and (not (= (|TreeNode::left| (getTreeNode (read var9 var5))) nullAddr)) (= var11 0))))) (and (= var4 0) (and (and (not (= var3 nullAddr)) (and (and (and (= var2 var15) (= var1 var14)) (= var0 var13)) (= var3 (|TreeNode::left| (getTreeNode (read var15 var13)))))) (and (and (and (= var9 var2) (= var7 var1)) (= var5 var0)) (= var4 (|TreeNode::right| (getTreeNode (read var2 var0))))))))))) (inv_main_12 var10 var8 var6))))
(assert (forall ((var0 Heap) (var1 Addr) (var2 Addr) (var3 Heap) (var4 Addr) (var5 Addr) (var6 Heap) (var7 Addr) (var8 Addr) (var9 Addr) (var10 Heap) (var11 Int) (var12 Int) (var13 Addr) (var14 Addr) (var15 Addr) (var16 Addr) (var17 Addr) (var18 TreeNode) (var19 Heap) (var20 Heap) (var21 Addr) (var22 Addr) (var23 Heap)) (or (not (and (inv_main_5 var23 var22 var21) (and (and (and (and (and (and (and (= var20 (newHeap (alloc var19 (O_TreeNode var18)))) (= var17 var16)) (= var15 var14)) (= var13 (newAddr (alloc var19 (O_TreeNode var18))))) (and (not (= var12 0)) (and (and (not (= var11 0)) (and (and (and (= var19 var10) (= var16 var9)) (= var14 var8)) (or (and (= (|TreeNode::left| (getTreeNode (read var10 var8))) nullAddr) (= var11 1)) (and (not (= (|TreeNode::left| (getTreeNode (read var10 var8))) nullAddr)) (= var11 0))))) (and (= var7 nullAddr) (and (and (and (= var10 var23) (= var9 var22)) (= var8 var21)) (= var7 (|TreeNode::left| (getTreeNode (read var23 var21))))))))) (and (and (= var6 (write var20 var15 (O_TreeNode (TreeNode var13 (|TreeNode::right| (getTreeNode (read var20 var15))))))) (= var5 var17)) (= var4 var15))) (and (and (= var3 (write var6 (|TreeNode::left| (getTreeNode (read var6 var4))) (O_TreeNode (TreeNode nullAddr (|TreeNode::right| (getTreeNode (read var6 (|TreeNode::left| (getTreeNode (read var6 var4)))))))))) (= var2 var5)) (= var1 var4))) (= var0 (write var3 (|TreeNode::left| (getTreeNode (read var3 var1))) (O_TreeNode (TreeNode (|TreeNode::left| (getTreeNode (read var3 (|TreeNode::left| (getTreeNode (read var3 var1)))))) nullAddr))))))) (inv_main_12 var0 var2 var1))))
(assert (forall ((var0 Heap) (var1 Addr) (var2 Addr) (var3 Heap) (var4 Addr) (var5 Addr) (var6 Heap) (var7 Addr) (var8 Addr) (var9 Heap) (var10 Addr) (var11 Addr) (var12 Addr) (var13 Addr) (var14 Heap) (var15 Int) (var16 Int) (var17 Addr) (var18 Addr) (var19 Addr) (var20 Addr) (var21 Addr) (var22 TreeNode) (var23 Heap) (var24 Heap) (var25 Addr) (var26 Addr) (var27 Heap)) (or (not (and (inv_main_5 var27 var26 var25) (and (and (and (and (and (and (and (= var24 (newHeap (alloc var23 (O_TreeNode var22)))) (= var21 var20)) (= var19 var18)) (= var17 (newAddr (alloc var23 (O_TreeNode var22))))) (and (not (= var16 0)) (and (and (not (= var15 0)) (and (and (and (= var23 var14) (= var20 var13)) (= var18 var12)) (or (and (= (|TreeNode::left| (getTreeNode (read var14 var12))) nullAddr) (= var15 1)) (and (not (= (|TreeNode::left| (getTreeNode (read var14 var12))) nullAddr)) (= var15 0))))) (and (= var11 0) (and (and (not (= var10 nullAddr)) (and (and (and (= var9 var27) (= var8 var26)) (= var7 var25)) (= var10 (|TreeNode::left| (getTreeNode (read var27 var25)))))) (and (and (and (= var14 var9) (= var13 var8)) (= var12 var7)) (= var11 (|TreeNode::right| (getTreeNode (read var9 var7)))))))))) (and (and (= var6 (write var24 var19 (O_TreeNode (TreeNode var17 (|TreeNode::right| (getTreeNode (read var24 var19))))))) (= var5 var21)) (= var4 var19))) (and (and (= var3 (write var6 (|TreeNode::left| (getTreeNode (read var6 var4))) (O_TreeNode (TreeNode nullAddr (|TreeNode::right| (getTreeNode (read var6 (|TreeNode::left| (getTreeNode (read var6 var4)))))))))) (= var2 var5)) (= var1 var4))) (= var0 (write var3 (|TreeNode::left| (getTreeNode (read var3 var1))) (O_TreeNode (TreeNode (|TreeNode::left| (getTreeNode (read var3 (|TreeNode::left| (getTreeNode (read var3 var1)))))) nullAddr))))))) (inv_main_12 var0 var2 var1))))
(assert (forall ((var0 Int) (var1 Addr) (var2 Addr) (var3 Heap)) (or (not (and (inv_main_2 var3 var2 var1) (not (= var0 0)))) (inv_main_5 var3 var2 var2))))
(assert (forall ((var0 Addr) (var1 Addr) (var2 Heap) (var3 Addr) (var4 Addr) (var5 Int) (var6 Addr) (var7 Addr) (var8 Addr) (var9 Addr) (var10 Addr) (var11 Heap) (var12 Heap) (var13 Addr) (var14 Addr) (var15 Heap)) (or (not (and (inv_main_5 var15 var14 var13) (and (and (and (and (= var12 var11) (= var10 var9)) (= var8 var7)) (= var6 (|TreeNode::left| (getTreeNode (read var11 var7))))) (and (not (= var5 0)) (and (not (= var4 0)) (and (and (not (= var3 nullAddr)) (and (and (and (= var2 var15) (= var1 var14)) (= var0 var13)) (= var3 (|TreeNode::left| (getTreeNode (read var15 var13)))))) (and (and (and (= var11 var2) (= var9 var1)) (= var7 var0)) (= var4 (|TreeNode::right| (getTreeNode (read var2 var0))))))))))) (inv_main_5 var12 var10 var6))))
(assert (forall ((var0 Addr) (var1 Addr) (var2 Heap) (var3 Addr) (var4 Addr) (var5 Int) (var6 Addr) (var7 Addr) (var8 Addr) (var9 Addr) (var10 Addr) (var11 Heap) (var12 Heap) (var13 Addr) (var14 Addr) (var15 Heap)) (or (not (and (inv_main_5 var15 var14 var13) (and (and (and (and (= var12 var11) (= var10 var9)) (= var8 var7)) (= var6 (|TreeNode::right| (getTreeNode (read var11 var7))))) (and (= var5 0) (and (not (= var4 0)) (and (and (not (= var3 nullAddr)) (and (and (and (= var2 var15) (= var1 var14)) (= var0 var13)) (= var3 (|TreeNode::left| (getTreeNode (read var15 var13)))))) (and (and (and (= var11 var2) (= var9 var1)) (= var7 var0)) (= var4 (|TreeNode::right| (getTreeNode (read var2 var0))))))))))) (inv_main_5 var12 var10 var6))))
(assert (forall ((var0 Int) (var1 Addr) (var2 Addr) (var3 Addr) (var4 Addr) (var5 Addr) (var6 Addr) (var7 Heap)) (or (not (inv_main609_17 var7 var6 var5 var4 var3 var2 var1 var0)) (inv_main609_17 var7 var6 var5 var4 var3 var2 var1 var0))))
(assert (forall ((var0 Int) (var1 Int) (var2 Addr) (var3 Addr) (var4 Addr) (var5 Addr) (var6 Addr) (var7 Addr) (var8 Addr) (var9 Addr) (var10 Addr) (var11 Addr) (var12 Addr) (var13 Addr) (var14 node) (var15 Heap) (var16 Heap) (var17 Addr) (var18 Addr) (var19 Addr) (var20 Addr) (var21 Addr) (var22 Addr) (var23 Addr) (var24 Heap)) (or (not (and (inv_main_38 var24 var23 var22 var21 var20 var19 var18) (and (and (= var17 nullAddr) (and (and (and (and (and (and (and (and (and (= var16 (newHeap (alloc var15 (O_node var14)))) (= var13 var12)) (= var11 var10)) (= var9 var8)) (= var7 var6)) (= var5 var4)) (= var3 var2)) (= var17 (newAddr (alloc var15 (O_node var14))))) (not (= var1 0))) (and (and (and (and (and (and (= var15 (write var24 var18 (O_node (node 2 (|node::n| (getnode (read var24 var18))))))) (= var12 var23)) (= var10 var22)) (= var8 var21)) (= var6 var20)) (= var4 var19)) (= var2 var18)))) (= var0 1)))) (inv_main609_17 var16 var13 var11 var9 var7 var17 var3 var0))))
(assert (forall ((var0 Addr) (var1 Addr) (var2 Addr) (var3 Addr) (var4 Addr) (var5 Addr) (var6 Heap) (var7 Int) (var8 Addr) (var9 Addr) (var10 Addr) (var11 Addr) (var12 Addr) (var13 Addr) (var14 Heap)) (or (not (and (inv_main_38 var14 var13 var12 var11 var10 var9 var8) (and (= var7 0) (and (and (and (and (and (and (= var6 (write var14 var8 (O_node (node 3 (|node::n| (getnode (read var14 var8))))))) (= var5 var13)) (= var4 var12)) (= var3 var11)) (= var2 var10)) (= var1 var9)) (= var0 var8))))) (inv_main_57 var6 var5 var4 var3 var2 var1 var2))))
(assert (forall ((var0 Int) (var1 Addr) (var2 Addr) (var3 Addr) (var4 Addr) (var5 Addr) (var6 Addr) (var7 Addr) (var8 Addr) (var9 Addr) (var10 Addr) (var11 Addr) (var12 Addr) (var13 Addr) (var14 Heap) (var15 Heap) (var16 Addr) (var17 Addr) (var18 Addr) (var19 Addr) (var20 Addr) (var21 Addr) (var22 Heap)) (or (not (and (inv_main_57 var22 var21 var20 var19 var18 var17 var16) (and (and (and (and (and (and (and (and (= var15 var14) (= var13 var12)) (= var11 var10)) (= var9 var8)) (= var7 var6)) (= var5 var4)) (= var3 var2)) (= var1 (|node::n| (getnode (read var14 var2))))) (and (= var0 2) (and (and (and (and (and (and (and (= var14 var22) (= var12 var21)) (= var10 var20)) (= var8 var19)) (= var6 var18)) (= var4 var17)) (= var2 var16)) (= var0 (|node::h| (getnode (read var22 var16))))))))) (inv_main_57 var15 var13 var11 var9 var7 var5 var1))))
(assert (forall ((var0 Addr) (var1 Addr) (var2 Addr) (var3 Addr) (var4 Addr) (var5 Addr) (var6 Heap) (var7 Int) (var8 Addr) (var9 Addr) (var10 Addr) (var11 Addr) (var12 Addr) (var13 Addr) (var14 Heap)) (or (not (and (inv_main_57 var14 var13 var12 var11 var10 var9 var8) (and (not (= var7 2)) (and (and (and (and (and (and (and (= var6 var14) (= var5 var13)) (= var4 var12)) (= var3 var11)) (= var2 var10)) (= var1 var9)) (= var0 var8)) (= var7 (|node::h| (getnode (read var14 var8)))))))) (inv_main_58 var6 var5 var4 var3 var2 var1 var0))))
(assert (forall ((var0 Int) (var1 Addr) (var2 Addr) (var3 Addr) (var4 Addr) (var5 Addr) (var6 Addr) (var7 Addr) (var8 Addr) (var9 Addr) (var10 Addr) (var11 Addr) (var12 Addr) (var13 Addr) (var14 Heap) (var15 Heap) (var16 Addr) (var17 Addr) (var18 Addr) (var19 Addr) (var20 Addr) (var21 Addr) (var22 Heap)) (or (not (and (inv_main_58 var22 var21 var20 var19 var18 var17 var16) (and (and (and (and (and (and (and (and (= var15 var14) (= var13 var12)) (= var11 var10)) (= var9 var8)) (= var7 var6)) (= var5 var4)) (= var3 var2)) (= var1 (|node::n| (getnode (read var14 var2))))) (and (= var0 1) (and (and (and (and (and (and (and (= var14 var22) (= var12 var21)) (= var10 var20)) (= var8 var19)) (= var6 var18)) (= var4 var17)) (= var2 var16)) (= var0 (|node::h| (getnode (read var22 var16))))))))) (inv_main_58 var15 var13 var11 var9 var7 var5 var1))))
(assert (forall ((var0 Heap) (var1 Addr) (var2 Addr) (var3 Addr) (var4 Heap) (var5 Addr) (var6 Addr) (var7 Heap) (var8 Addr) (var9 Addr) (var10 Addr) (var11 Heap) (var12 Addr) (var13 Addr) (var14 Addr) (var15 Addr) (var16 Addr) (var17 Addr) (var18 Heap)) (or (not (and (inv_main_27 var18 var17 var16 var15) (and (and (and (= var14 nullAddr) (and (= var13 0) (and (and (= var12 nullAddr) (and (and (and (and (= var11 var18) (= var10 var17)) (= var9 var16)) (= var8 var15)) (= var12 (|TreeNode::left| (getTreeNode (read var18 var16)))))) (and (and (and (and (= var7 var11) (= var6 var10)) (= var5 var9)) (= var14 var8)) (= var13 (|TreeNode::right| (getTreeNode (read var11 var9)))))))) (and (and (and (= var4 var7) (= var3 nullAddr)) (= var2 var5)) (= var1 var14))) (= var0 (write var4 var2 defObj))))) (inv_main575_3 var0 var3 var2 var1))))
(assert (forall ((var0 Heap) (var1 Addr) (var2 Addr) (var3 Addr) (var4 Heap) (var5 Addr) (var6 Addr) (var7 Addr) (var8 Addr) (var9 Heap) (var10 Addr) (var11 Addr) (var12 Addr) (var13 Heap) (var14 Addr) (var15 Addr) (var16 Addr) (var17 Addr) (var18 Heap)) (or (not (and (inv_main_27 var18 var17 var16 var15) (and (and (and (= var14 (|TreeNode::left| (getTreeNode (read var13 var12)))) (and (not (= var12 nullAddr)) (and (= var11 0) (and (and (= var10 nullAddr) (and (and (and (and (= var9 var18) (= var8 var17)) (= var7 var16)) (= var6 var15)) (= var10 (|TreeNode::left| (getTreeNode (read var18 var16)))))) (and (and (and (and (= var13 var9) (= var5 var8)) (= var14 var7)) (= var12 var6)) (= var11 (|TreeNode::right| (getTreeNode (read var9 var7))))))))) (and (and (and (= var4 (write var13 var12 (O_TreeNode (TreeNode nullAddr (|TreeNode::right| (getTreeNode (read var13 var12))))))) (= var3 var5)) (= var2 var14)) (= var1 var12))) (= var0 (write var4 var2 defObj))))) (inv_main575_3 var0 var3 var2 var1))))
(assert (forall ((var0 Heap) (var1 Addr) (var2 Addr) (var3 Addr) (var4 Heap) (var5 Addr) (var6 Addr) (var7 Addr) (var8 Addr) (var9 Heap) (var10 Addr) (var11 Addr) (var12 Addr) (var13 Heap) (var14 Addr) (var15 Addr) (var16 Addr) (var17 Addr) (var18 Heap)) (or (not (and (inv_main_27 var18 var17 var16 var15) (and (and (and (not (= var14 (|TreeNode::left| (getTreeNode (read var13 var12))))) (and (not (= var12 nullAddr)) (and (= var11 0) (and (and (= var10 nullAddr) (and (and (and (and (= var9 var18) (= var8 var17)) (= var7 var16)) (= var6 var15)) (= var10 (|TreeNode::left| (getTreeNode (read var18 var16)))))) (and (and (and (and (= var13 var9) (= var5 var8)) (= var14 var7)) (= var12 var6)) (= var11 (|TreeNode::right| (getTreeNode (read var9 var7))))))))) (and (and (and (= var4 (write var13 var12 (O_TreeNode (TreeNode (|TreeNode::left| (getTreeNode (read var13 var12))) nullAddr)))) (= var3 var5)) (= var2 var14)) (= var1 var12))) (= var0 (write var4 var2 defObj))))) (inv_main575_3 var0 var3 var2 var1))))
(assert (forall ((var0 Addr) (var1 Addr) (var2 Addr) (var3 Heap) (var4 Int) (var5 Addr) (var6 Addr) (var7 Heap)) (or (not (and (inv_main_2 var7 var6 var5) (and (= var4 0) (and (and (= var3 var7) (= var2 var6)) (= var1 nullAddr))))) (inv_main575_3 var3 var2 var1 var0))))
(assert (forall ((var0 Int) (var1 Addr) (var2 Addr) (var3 Addr) (var4 Addr) (var5 Addr) (var6 Addr) (var7 Heap)) (or (not (inv_main602_17 var7 var6 var5 var4 var3 var2 var1 var0)) (inv_main602_17 var7 var6 var5 var4 var3 var2 var1 var0))))
(assert (forall ((var0 Int) (var1 Int) (var2 Addr) (var3 Addr) (var4 Addr) (var5 Addr) (var6 Addr) (var7 Addr) (var8 Addr) (var9 Addr) (var10 Addr) (var11 Addr) (var12 Addr) (var13 Addr) (var14 node) (var15 Heap) (var16 Heap) (var17 Addr) (var18 Addr) (var19 Addr) (var20 Addr) (var21 Addr) (var22 Addr) (var23 Addr) (var24 Heap)) (or (not (and (inv_main598_3 var24 var23 var22 var21 var20 var19 var18) (and (and (= var17 nullAddr) (and (and (and (and (and (and (and (and (and (= var16 (newHeap (alloc var15 (O_node var14)))) (= var13 var12)) (= var11 var10)) (= var9 var8)) (= var7 var6)) (= var5 var4)) (= var3 var2)) (= var17 (newAddr (alloc var15 (O_node var14))))) (not (= var1 0))) (and (and (and (and (and (and (= var15 (write var24 var18 (O_node (node 1 (|node::n| (getnode (read var24 var18))))))) (= var12 var23)) (= var10 var22)) (= var8 var21)) (= var6 var20)) (= var4 var19)) (= var2 var18)))) (= var0 1)))) (inv_main602_17 var16 var13 var11 var9 var7 var17 var3 var0))))
(assert (forall ((var0 Int) (var1 Addr) (var2 Addr) (var3 Addr) (var4 Addr) (var5 Addr) (var6 Addr) (var7 Heap)) (or (not (and (inv_main598_3 var7 var6 var5 var4 var3 var2 var1) (= var0 0))) (inv_main_38 var7 var6 var5 var4 var3 var2 var1))))
(assert (forall ((var0 Int) (var1 Addr) (var2 Addr) (var3 Addr) (var4 Addr) (var5 Addr) (var6 Addr) (var7 Addr) (var8 node) (var9 Heap) (var10 Addr) (var11 Addr) (var12 Addr) (var13 Addr) (var14 Addr) (var15 Addr) (var16 Heap) (var17 Addr) (var18 Addr) (var19 Addr) (var20 Addr) (var21 Addr) (var22 Addr) (var23 Addr) (var24 Addr) (var25 Addr) (var26 Addr) (var27 Addr) (var28 Addr) (var29 Addr) (var30 Heap) (var31 Heap) (var32 Addr) (var33 Addr) (var34 Addr) (var35 Addr) (var36 Addr) (var37 Addr) (var38 Heap)) (or (not (and (inv_main_38 var38 var37 var36 var35 var34 var33 var32) (and (and (and (and (and (and (and (and (and (= var31 var30) (= var29 var28)) (= var27 var26)) (= var25 var24)) (= var23 var22)) (= var21 var20)) (= var19 var18)) (= var17 (|node::n| (getnode (read var30 var18))))) (and (and (and (and (and (and (= var30 (write var16 var15 (O_node (node (|node::h| (getnode (read var16 var15))) var14)))) (= var28 var13)) (= var26 var12)) (= var24 var11)) (= var22 var10)) (= var20 var14)) (= var18 var15))) (and (not (= var14 nullAddr)) (and (and (and (and (and (and (and (and (and (= var16 (newHeap (alloc var9 (O_node var8)))) (= var13 var7)) (= var12 var6)) (= var11 var5)) (= var10 var4)) (= var3 var2)) (= var15 var1)) (= var14 (newAddr (alloc var9 (O_node var8))))) (not (= var0 0))) (and (and (and (and (and (and (= var9 (write var38 var32 (O_node (node 2 (|node::n| (getnode (read var38 var32))))))) (= var7 var37)) (= var6 var36)) (= var5 var35)) (= var4 var34)) (= var2 var33)) (= var1 var32))))))) (inv_main_38 var31 var29 var27 var25 var23 var21 var17))))
(assert (forall ((var0 Addr) (var1 Addr) (var2 Addr) (var3 Addr) (var4 Addr) (var5 Addr) (var6 Heap)) (not (inv_main619_6_63 var6 var5 var4 var3 var2 var1 var0))))
(check-sat)
